(declare-fun e () String)
(declare-fun c () String)
(declare-fun b () String)
(declare-fun d () String)
(declare-fun f () String)
(declare-fun a () String)
(declare-fun h () String)
(assert (= d e))
(assert (= (str.++ a "f" h) (str.++ d "ea" f)))
(assert (= (str.++ b "c") c))

(check-sat)
